# Objective value = 134
WA1n 0
WA1p 0
WA2n 1
WA2p 0
WB1n 0
WB1p 0
WB2n 0
WB2p 1
WC1n 1
WC1p 0
WD1n 0
WD1p 1
WD2n 0
WD2p 1
WE1n 2
WE1p 0
WE2n 1
WE2p 0
WF1n 0
WF1p 4
WG1n 0
WG1p 4
WH1n 10
WH1p 0
WH2n 1
WH2p 0
WI1n 0
WI1p 10
WI2n 0
WI2p 1
WJ1n 0
WJ1p 10
WJ2n 0
WJ2p 1
WK1n 35
WK1p 0
WK2n 1
WK2p 0
WL1n 35
WL1p 0
WL2n 1
WL2p 0
WT1n 4
WT1p 0
5 7
a 0
b 0
c 0
d 1
e 0
f 1
g 1
h 0
i 0
j 1
k 1
l 0
m 0
n 1
o 1
p 1
q 1
r 0
s 0
t 0
u 0
v 0
